NAME = AISearchfile180,
TOURSIZE = 180,
LENGTH = 6600,
52,43,101,176,62,86,158,44,94,109,64,46,156,108,127,169,80,155,56,90,147,93,162,70,159,160,172,118,82,115,146,97,163,134,119,164,37,113,38,1,47,40,138,112,10,151,100,173,124,149,135,103,5,28,58,143,4,8,21,122,128,9,123,114,73,140,153,79,144,6,22,166,67,111,137,174,12,11,154,18,133,96,32,102,125,75,74,145,136,126,161,39,179,36,57,77,116,63,3,26,177,89,15,33,180,71,72,142,29,55,69,168,13,167,35,30,27,129,78,175,87,121,171,41,68,50,110,34,2,141,148,88,131,7,24,104,105,165,23,130,17,83,132,139,31,152,99,76,117,120,157,170,106,51,65,42,59,54,25,66,53,14,19,16,107,85,48,60,81,91,92,150,61,178,45,20,84,95,49,98